12 88 71 46 85 30 23 39 77 97 7 74 76 81 54 3 5 70 57 79 31 16 33 25 9 73 22 6 37 27 75 93 35 50 72 92 49 32 45 42 40 0 44 80 29 66 4 89 58 11 59 99 60 61 67 13 62 43 84 64 17 90 38 96 83 78 82 95 18 94 20 19 86 63 98 1 51 52 34 56 21 47 69 65 91 48 24 8 53 68 87 2 10 15 28 41 55 26 36 14 

